Version identifier: 22.1.0.0 | 2022-03-09 | 1a383f8ce
CPXPARAM_Threads                                 1
CPXPARAM_MIP_Strategy_VariableSelect             3
CPXPARAM_TimeLimit                               599.995158339
Tried aggregator 1 time.
MIP Presolve eliminated 12 rows and 0 columns.
MIP Presolve modified 1 coefficients.
Reduced MIP has 1507 rows, 5700 columns, and 58880 nonzeros.
Reduced MIP has 5700 binaries, 0 generals, 0 SOSs, and 0 indicators.
Presolve time = 0.03 sec. (27.39 ticks)
Probing time = 0.01 sec. (3.96 ticks)
Tried aggregator 1 time.
Detecting symmetries...
Reduced MIP has 1507 rows, 5700 columns, and 58880 nonzeros.
Reduced MIP has 5700 binaries, 0 generals, 0 SOSs, and 0 indicators.
Presolve time = 0.04 sec. (34.10 ticks)
Probing time = 0.01 sec. (3.96 ticks)
Clique table members: 894.
MIP emphasis: balance optimality and feasibility.
MIP search method: dynamic search.
Parallel mode: none, using 1 thread.
Root relaxation solution time = 0.57 sec. (608.92 ticks)

        Nodes                                         Cuts/
   Node  Left     Objective  IInf  Best Integer    Best Bound    ItCnt     Gap

      0     0        0.0000  1016                      0.0000     2974         
*     0+    0                            0.0000        0.0000             0.00%
      0     0        cutoff              0.0000        0.0000     2974    0.00%
Elapsed time = 3.55 sec. (3637.95 ticks, tree = 0.01 MB, solutions = 1)

Root node processing (before b&c):
  Real time             =    3.55 sec. (3638.12 ticks)
Sequential b&c:
  Real time             =    0.00 sec. (0.00 ticks)
                          ------------
Total (root+branch&cut) =    3.55 sec. (3638.12 ticks)
Primal:	300
Dual:	300
Status:	Optimal
Time:	3.58101
Sequence:
	5
	6
	2
	15
	10
	8
	10
	15
	14
	10
	5
	7
	10
	5
	2
	6
	10
	7
	5
	10
	5
	12
	15
	5
	10
	8
	10
	4
	18
	10
	5
	10
	17
	5
	10
	8
	15
	10
	9
	10
	15
	5
	2
	16
	10
	15
	8
	10
	6
	10
	7
	5
	10
	3
	5
	15
	13
	10
	4
	18
	10
	5
	7
	10
	4
	13
	5
	10
	15
	12
	5
	10
	8
	15
	11
	8
	15
	0
	7
	10
	1
	7
	5
	10
	7
	6
	10
	18
	10
	15
	1
	7
	5
	10
	15
	12
	5
	5
	2
	15
	4
	13
	5
	15
	2
	4
	0
	13
	15
	15
	2
	5
	1
	15
	7
	10
	0
	5
	10
	17
	10
	5
	8
	10
	15
	12
	5
	0
	15
	2
	10
	0
	8
	4
	10
	7
	0
	5
	3
	15
	15
	0
	18
	4
	10
	15
	18
	0
	15
	12
	15
	5
	0
	15
	12
	15
	0
	18
	10
	4
	7
	0
	5
	2
	4
	15
	13
	5
	15
	2
	4
	0
	8
	15
	10
	7
	6
	0
	15
	7
	10
	16
	0
	7
	15
	10
	6
	18
	10
	15
	7
	0
	6
	2
	15
	15
	13
	1
	10
	7
	15
	0
	5
	7
	11
	15
	0
	8
	15
	11
	7
	0
	15
	13
	4
	15
	0
	7
	0
	15
	4
	0
	7
	0
	15
	17
	0
	15
	0
	7
	4
	0
	7
	0
	15
	3
	5
	15
	0
	7
	4
	0
	7
	5
	10
	3
	15
	5
	13
	15
	15
	2
	0
	5
	17
	10
	15
	18
	0
	4
	2
	15
	0
	5
	17
	10
	15
	0
	8
	15
	10
	15
	8
	1
	10
	7
	15
	0
	14
	15
	15
	2
	5
	5
	3
	15
	10
	18
	10
	6
	15
	2
	5
	10
	9
	15
	10
	5
	15
	14
